50 48 49
1 1 1
1 1 2
1 1 3
1 2 1
1 3 1
2 1 1
2 10 1
3 1 8
1 10 8
1 1 4
1 4 5
2 3 5
9 1 4
1 5 9
3 5 6
4 8 9
1 1 2
3 4 5
10 1 2
20 25 29
1 5 9
1 10 5
3 3 3
2 2 2
1 1 1
1 0 1
1 1 0
1 1 0
1 0 0
2 3 0
3 0 4
3 0 5
2 6 0
1 2 3
1 3 2
3 3 3
4 4 4
1 9 4
2 10 9
4 5 2
3 1 5
3 2 6
3 3 5
3 4 7
5 4 9
10 1 2
3 4 5
4 4 4
5 5 5
20 3 3
